22	0

0	4	2	3	4	5
4	4	7	8	10	11
3	1	6
9	3	7	10	11
9	3	7	10	11
5	4	7	8	10	11
1	2	9	12
4	2	9	12
1	2	13	14
6	2	13	14
6	2	13	14
8	2	13	17
5	3	15	16	18
8	3	15	16	17
6	2	19	20
9	2	19	20
4	3	18	19	20
10	1	21
1	1	21
3	1	21
8	1	22
0	0
